\ENCODING=ISO-8859-1
\Problem name: Configuration2

Minimize
 obj:
Subject To
 c1:   10 y({"sfc_1"})(1)(1) <= 100
 c2:   10 y({"sfc_1"})(1)(2) <= 1
 c3:   10 y({"sfc_1"})(1)(3) <= 1
 c4:   10 y({"sfc_1"})(1)(4) <= 100
 c5:   10 y({"sfc_1"})(1)(5) <= 100
 c6:   10 y({"sfc_1"})(1)(6) <= 100
 c7:   y({"sfc_1"})(1)(1) + y({"sfc_1"})(1)(2) + y({"sfc_1"})(1)(3)
       + y({"sfc_1"})(1)(4) + y({"sfc_1"})(1)(5) + y({"sfc_1"})(1)(6)  = 1
 c8:   y({"sfc_1"})(1)(1) + y({"sfc_1"})(2)(1) + y({"sfc_1"})(3)(1)  = 1
 c9:   y({"sfc_1"})(1)(2) + y({"sfc_1"})(2)(2) + y({"sfc_1"})(3)(2)  = 1
 c10:  y({"sfc_1"})(1)(3) + y({"sfc_1"})(2)(3) + y({"sfc_1"})(3)(3)  = 1
 c11:  y({"sfc_1"})(1)(4) + y({"sfc_1"})(2)(4) + y({"sfc_1"})(3)(4)  = 1
 c12:  y({"sfc_1"})(1)(5) + y({"sfc_1"})(2)(5) + y({"sfc_1"})(3)(5)  = 1
 c13:  y({"sfc_1"})(1)(6) + y({"sfc_1"})(2)(6) + y({"sfc_1"})(3)(6)  = 1
 c14:  y({"sfc_1"})(1)(1) - x("VNF1")(1)  = 0
 c15:  y({"sfc_1"})(1)(2) - x("VNF1")(2)  = 0
 c16:  y({"sfc_1"})(1)(3) - x("VNF1")(3)  = 0
 c17:  y({"sfc_1"})(1)(4) - x("VNF1")(4)  = 0
 c18:  y({"sfc_1"})(1)(5) - x("VNF1")(5)  = 0
 c19:  y({"sfc_1"})(1)(6) - x("VNF1")(6)  = 0
 c20:  y({"sfc_1"})(1)(1) - x("VNF2")(1)  = 0
 c21:  y({"sfc_1"})(1)(2) - x("VNF2")(2)  = 0
 c22:  y({"sfc_1"})(1)(3) - x("VNF2")(3)  = 0
 c23:  y({"sfc_1"})(1)(4) - x("VNF2")(4)  = 0
 c24:  y({"sfc_1"})(1)(5) - x("VNF2")(5)  = 0
 c25:  y({"sfc_1"})(1)(6) - x("VNF2")(6)  = 0
 c26:  y({"sfc_1"})(1)(1)  = 0
 c27:  y({"sfc_1"})(1)(4)  = 0
 c28:  5 z({"sfc_1"})({1,2}) <= 100
 c29:  5 z({"sfc_1"})({2,3}) <= 100
 c30:  5 z({"sfc_1"})({2,6}) <= 0
 c31:  5 z({"sfc_1"})({3,4}) <= 100
 c32:  5 z({"sfc_1"})({3,5}) <= 0
 c33:  5 z({"sfc_1"})({4,5}) <= 100
 c34:  5 z({"sfc_1"})({5,6}) <= 100
 c35:  5 z({"sfc_1"})({1,6}) <= 100
 c36:  5 z({"sfc_1"})({2,1}) <= 100
 c37:  5 z({"sfc_1"})({3,2}) <= 100
 c38:  5 z({"sfc_1"})({6,2}) <= 0
 c39:  5 z({"sfc_1"})({4,3}) <= 100
 c40:  5 z({"sfc_1"})({5,3}) <= 0
 c41:  5 z({"sfc_1"})({5,4}) <= 100
 c42:  5 z({"sfc_1"})({6,5}) <= 100
 c43:  5 z({"sfc_1"})({6,1}) <= 100
 c44:  5 z({"sfc_1"})({1,2}) + 5 z({"sfc_1"})({2,3}) + 5 z({"sfc_1"})({3,4})
       + 5 z({"sfc_1"})({4,5}) + 5 z({"sfc_1"})({5,6}) + 5 z({"sfc_1"})({1,6})
       + 5 z({"sfc_1"})({2,1}) + 5 z({"sfc_1"})({3,2}) + 5 z({"sfc_1"})({4,3})
       + 5 z({"sfc_1"})({5,4}) + 5 z({"sfc_1"})({6,5}) + 5 z({"sfc_1"})({6,1})
       <= 100
 c45:  z({"sfc_1"})({1,2}) + z({"sfc_1"})({1,6}) - z({"sfc_1"})({2,1})
       - z({"sfc_1"})({6,1})  = 1
 c46:  z({"sfc_1"})({3,4}) - z({"sfc_1"})({4,5}) - z({"sfc_1"})({4,3})
       + z({"sfc_1"})({5,4})  = 1
 c47:  - z({"sfc_1"})({1,2}) + z({"sfc_1"})({2,3}) + z({"sfc_1"})({2,6})
       + z({"sfc_1"})({2,1}) - z({"sfc_1"})({3,2}) - z({"sfc_1"})({6,2})  = 0
 c48:  - z({"sfc_1"})({2,3}) + z({"sfc_1"})({3,4}) + z({"sfc_1"})({3,5})
       + z({"sfc_1"})({3,2}) - z({"sfc_1"})({4,3}) - z({"sfc_1"})({5,3})  = 0
 c49:  - z({"sfc_1"})({3,5}) - z({"sfc_1"})({4,5}) + z({"sfc_1"})({5,6})
       + z({"sfc_1"})({5,3}) + z({"sfc_1"})({5,4}) - z({"sfc_1"})({6,5})  = 0
 c50:  - z({"sfc_1"})({2,6}) - z({"sfc_1"})({5,6}) - z({"sfc_1"})({1,6})
       + z({"sfc_1"})({6,2}) + z({"sfc_1"})({6,5}) + z({"sfc_1"})({6,1})  = 0
 c51:  z({"sfc_1"})({1,2}) + z({"sfc_1"})({2,1}) <= 1
 c52:  z({"sfc_1"})({2,3}) + z({"sfc_1"})({3,2}) <= 1
 c53:  z({"sfc_1"})({2,6}) + z({"sfc_1"})({6,2}) <= 1
 c54:  z({"sfc_1"})({3,4}) + z({"sfc_1"})({4,3}) <= 1
 c55:  z({"sfc_1"})({3,5}) + z({"sfc_1"})({5,3}) <= 1
 c56:  z({"sfc_1"})({4,5}) + z({"sfc_1"})({5,4}) <= 1
 c57:  z({"sfc_1"})({5,6}) + z({"sfc_1"})({6,5}) <= 1
 c58:  z({"sfc_1"})({1,6}) + z({"sfc_1"})({6,1}) <= 1
 c59:  z({"sfc_1"})({1,2}) + z({"sfc_1"})({2,1}) <= 1
 c60:  z({"sfc_1"})({2,3}) + z({"sfc_1"})({3,2}) <= 1
 c61:  z({"sfc_1"})({2,6}) + z({"sfc_1"})({6,2}) <= 1
 c62:  z({"sfc_1"})({3,4}) + z({"sfc_1"})({4,3}) <= 1
 c63:  z({"sfc_1"})({3,5}) + z({"sfc_1"})({5,3}) <= 1
 c64:  z({"sfc_1"})({4,5}) + z({"sfc_1"})({5,4}) <= 1
 c65:  z({"sfc_1"})({5,6}) + z({"sfc_1"})({6,5}) <= 1
 c66:  z({"sfc_1"})({1,6}) + z({"sfc_1"})({6,1}) <= 1
 c67:  2 y({"sfc_1"})(1)(1) + z({"sfc_1"})({1,2}) + z({"sfc_1"})({1,6})  = 3
 c68:  3 y({"sfc_1"})(1)(2) + z({"sfc_1"})({2,3}) + z({"sfc_1"})({2,6})
       + z({"sfc_1"})({2,1})  = 4
 c69:  3 y({"sfc_1"})(1)(3) + z({"sfc_1"})({3,4}) + z({"sfc_1"})({3,5})
       + z({"sfc_1"})({3,2})  = 4
 c70:  2 y({"sfc_1"})(1)(4) + z({"sfc_1"})({4,5}) + z({"sfc_1"})({4,3})  = 3
 c71:  3 y({"sfc_1"})(1)(5) + z({"sfc_1"})({5,6}) + z({"sfc_1"})({5,3})
       + z({"sfc_1"})({5,4})  = 4
 c72:  3 y({"sfc_1"})(1)(6) + z({"sfc_1"})({6,2}) + z({"sfc_1"})({6,5})
       + z({"sfc_1"})({6,1})  = 4
 c73:  2 y({"sfc_1"})(1)(1) + z({"sfc_1"})({2,1}) + z({"sfc_1"})({6,1})  = 3
 c74:  3 y({"sfc_1"})(1)(2) + z({"sfc_1"})({1,2}) + z({"sfc_1"})({3,2})
       + z({"sfc_1"})({6,2})  = 4
 c75:  3 y({"sfc_1"})(1)(3) + z({"sfc_1"})({2,3}) + z({"sfc_1"})({4,3})
       + z({"sfc_1"})({5,3})  = 4
 c76:  2 y({"sfc_1"})(1)(4) + z({"sfc_1"})({3,4}) + z({"sfc_1"})({5,4})  = 3
 c77:  3 y({"sfc_1"})(1)(5) + z({"sfc_1"})({3,5}) + z({"sfc_1"})({4,5})
       + z({"sfc_1"})({6,5})  = 4
 c78:  3 y({"sfc_1"})(1)(6) + z({"sfc_1"})({2,6}) + z({"sfc_1"})({5,6})
       + z({"sfc_1"})({1,6})  = 4
 c79:  z({"sfc_1"})({1,2}) <= 1
 c80:  y({"sfc_1"})(1)(1) + z({"sfc_1"})({1,2}) >= 1
 c81:  z({"sfc_1"})({2,3}) <= 1
 c82:  y({"sfc_1"})(1)(1) + z({"sfc_1"})({2,3}) >= 1
 c83:  z({"sfc_1"})({2,6}) <= 1
 c84:  y({"sfc_1"})(1)(1) + z({"sfc_1"})({2,6}) >= 1
 c85:  z({"sfc_1"})({3,4}) <= 1
 c86:  y({"sfc_1"})(1)(1) + z({"sfc_1"})({3,4}) >= 1
 c87:  z({"sfc_1"})({3,5}) <= 1
 c88:  y({"sfc_1"})(1)(1) + z({"sfc_1"})({3,5}) >= 1
 c89:  z({"sfc_1"})({4,5}) <= 1
 c90:  y({"sfc_1"})(1)(1) + z({"sfc_1"})({4,5}) >= 1
 c91:  z({"sfc_1"})({5,6}) <= 1
 c92:  y({"sfc_1"})(1)(1) + z({"sfc_1"})({5,6}) >= 1
 c93:  z({"sfc_1"})({1,6}) <= 1
 c94:  y({"sfc_1"})(1)(1) + z({"sfc_1"})({1,6}) >= 1
 c95:  z({"sfc_1"})({2,1}) <= 1
 c96:  y({"sfc_1"})(1)(1) + z({"sfc_1"})({2,1}) >= 1
 c97:  z({"sfc_1"})({3,2}) <= 1
 c98:  y({"sfc_1"})(1)(1) + z({"sfc_1"})({3,2}) >= 1
 c99:  z({"sfc_1"})({6,2}) <= 1
 c100: y({"sfc_1"})(1)(1) + z({"sfc_1"})({6,2}) >= 1
 c101: z({"sfc_1"})({4,3}) <= 1
 c102: y({"sfc_1"})(1)(1) + z({"sfc_1"})({4,3}) >= 1
 c103: z({"sfc_1"})({5,3}) <= 1
 c104: y({"sfc_1"})(1)(1) + z({"sfc_1"})({5,3}) >= 1
 c105: z({"sfc_1"})({5,4}) <= 1
 c106: y({"sfc_1"})(1)(1) + z({"sfc_1"})({5,4}) >= 1
 c107: z({"sfc_1"})({6,5}) <= 1
 c108: y({"sfc_1"})(1)(1) + z({"sfc_1"})({6,5}) >= 1
 c109: z({"sfc_1"})({6,1}) <= 1
 c110: y({"sfc_1"})(1)(1) + z({"sfc_1"})({6,1}) >= 1
 c111: z({"sfc_1"})({1,2}) <= 1
 c112: y({"sfc_1"})(1)(2) + z({"sfc_1"})({1,2}) >= 1
 c113: z({"sfc_1"})({2,3}) <= 1
 c114: y({"sfc_1"})(1)(2) + z({"sfc_1"})({2,3}) >= 1
 c115: z({"sfc_1"})({2,6}) <= 1
 c116: y({"sfc_1"})(1)(2) + z({"sfc_1"})({2,6}) >= 1
 c117: z({"sfc_1"})({3,4}) <= 1
 c118: y({"sfc_1"})(1)(2) + z({"sfc_1"})({3,4}) >= 1
 c119: z({"sfc_1"})({3,5}) <= 1
 c120: y({"sfc_1"})(1)(2) + z({"sfc_1"})({3,5}) >= 1
 c121: z({"sfc_1"})({4,5}) <= 1
 c122: y({"sfc_1"})(1)(2) + z({"sfc_1"})({4,5}) >= 1
 c123: z({"sfc_1"})({5,6}) <= 1
 c124: y({"sfc_1"})(1)(2) + z({"sfc_1"})({5,6}) >= 1
 c125: z({"sfc_1"})({1,6}) <= 1
 c126: y({"sfc_1"})(1)(2) + z({"sfc_1"})({1,6}) >= 1
 c127: z({"sfc_1"})({2,1}) <= 1
 c128: y({"sfc_1"})(1)(2) + z({"sfc_1"})({2,1}) >= 1
 c129: z({"sfc_1"})({3,2}) <= 1
 c130: y({"sfc_1"})(1)(2) + z({"sfc_1"})({3,2}) >= 1
 c131: z({"sfc_1"})({6,2}) <= 1
 c132: y({"sfc_1"})(1)(2) + z({"sfc_1"})({6,2}) >= 1
 c133: z({"sfc_1"})({4,3}) <= 1
 c134: y({"sfc_1"})(1)(2) + z({"sfc_1"})({4,3}) >= 1
 c135: z({"sfc_1"})({5,3}) <= 1
 c136: y({"sfc_1"})(1)(2) + z({"sfc_1"})({5,3}) >= 1
 c137: z({"sfc_1"})({5,4}) <= 1
 c138: y({"sfc_1"})(1)(2) + z({"sfc_1"})({5,4}) >= 1
 c139: z({"sfc_1"})({6,5}) <= 1
 c140: y({"sfc_1"})(1)(2) + z({"sfc_1"})({6,5}) >= 1
 c141: z({"sfc_1"})({6,1}) <= 1
 c142: y({"sfc_1"})(1)(2) + z({"sfc_1"})({6,1}) >= 1
 c143: z({"sfc_1"})({1,2}) <= 1
 c144: y({"sfc_1"})(1)(3) + z({"sfc_1"})({1,2}) >= 1
 c145: z({"sfc_1"})({2,3}) <= 1
 c146: y({"sfc_1"})(1)(3) + z({"sfc_1"})({2,3}) >= 1
 c147: z({"sfc_1"})({2,6}) <= 1
 c148: y({"sfc_1"})(1)(3) + z({"sfc_1"})({2,6}) >= 1
 c149: z({"sfc_1"})({3,4}) <= 1
 c150: y({"sfc_1"})(1)(3) + z({"sfc_1"})({3,4}) >= 1
 c151: z({"sfc_1"})({3,5}) <= 1
 c152: y({"sfc_1"})(1)(3) + z({"sfc_1"})({3,5}) >= 1
 c153: z({"sfc_1"})({4,5}) <= 1
 c154: y({"sfc_1"})(1)(3) + z({"sfc_1"})({4,5}) >= 1
 c155: z({"sfc_1"})({5,6}) <= 1
 c156: y({"sfc_1"})(1)(3) + z({"sfc_1"})({5,6}) >= 1
 c157: z({"sfc_1"})({1,6}) <= 1
 c158: y({"sfc_1"})(1)(3) + z({"sfc_1"})({1,6}) >= 1
 c159: z({"sfc_1"})({2,1}) <= 1
 c160: y({"sfc_1"})(1)(3) + z({"sfc_1"})({2,1}) >= 1
 c161: z({"sfc_1"})({3,2}) <= 1
 c162: y({"sfc_1"})(1)(3) + z({"sfc_1"})({3,2}) >= 1
 c163: z({"sfc_1"})({6,2}) <= 1
 c164: y({"sfc_1"})(1)(3) + z({"sfc_1"})({6,2}) >= 1
 c165: z({"sfc_1"})({4,3}) <= 1
 c166: y({"sfc_1"})(1)(3) + z({"sfc_1"})({4,3}) >= 1
 c167: z({"sfc_1"})({5,3}) <= 1
 c168: y({"sfc_1"})(1)(3) + z({"sfc_1"})({5,3}) >= 1
 c169: z({"sfc_1"})({5,4}) <= 1
 c170: y({"sfc_1"})(1)(3) + z({"sfc_1"})({5,4}) >= 1
 c171: z({"sfc_1"})({6,5}) <= 1
 c172: y({"sfc_1"})(1)(3) + z({"sfc_1"})({6,5}) >= 1
 c173: z({"sfc_1"})({6,1}) <= 1
 c174: y({"sfc_1"})(1)(3) + z({"sfc_1"})({6,1}) >= 1
 c175: z({"sfc_1"})({1,2}) <= 1
 c176: y({"sfc_1"})(1)(4) + z({"sfc_1"})({1,2}) >= 1
 c177: z({"sfc_1"})({2,3}) <= 1
 c178: y({"sfc_1"})(1)(4) + z({"sfc_1"})({2,3}) >= 1
 c179: z({"sfc_1"})({2,6}) <= 1
 c180: y({"sfc_1"})(1)(4) + z({"sfc_1"})({2,6}) >= 1
 c181: z({"sfc_1"})({3,4}) <= 1
 c182: y({"sfc_1"})(1)(4) + z({"sfc_1"})({3,4}) >= 1
 c183: z({"sfc_1"})({3,5}) <= 1
 c184: y({"sfc_1"})(1)(4) + z({"sfc_1"})({3,5}) >= 1
 c185: z({"sfc_1"})({4,5}) <= 1
 c186: y({"sfc_1"})(1)(4) + z({"sfc_1"})({4,5}) >= 1
 c187: z({"sfc_1"})({5,6}) <= 1
 c188: y({"sfc_1"})(1)(4) + z({"sfc_1"})({5,6}) >= 1
 c189: z({"sfc_1"})({1,6}) <= 1
 c190: y({"sfc_1"})(1)(4) + z({"sfc_1"})({1,6}) >= 1
 c191: z({"sfc_1"})({2,1}) <= 1
 c192: y({"sfc_1"})(1)(4) + z({"sfc_1"})({2,1}) >= 1
 c193: z({"sfc_1"})({3,2}) <= 1
 c194: y({"sfc_1"})(1)(4) + z({"sfc_1"})({3,2}) >= 1
 c195: z({"sfc_1"})({6,2}) <= 1
 c196: y({"sfc_1"})(1)(4) + z({"sfc_1"})({6,2}) >= 1
 c197: z({"sfc_1"})({4,3}) <= 1
 c198: y({"sfc_1"})(1)(4) + z({"sfc_1"})({4,3}) >= 1
 c199: z({"sfc_1"})({5,3}) <= 1
 c200: y({"sfc_1"})(1)(4) + z({"sfc_1"})({5,3}) >= 1
 c201: z({"sfc_1"})({5,4}) <= 1
 c202: y({"sfc_1"})(1)(4) + z({"sfc_1"})({5,4}) >= 1
 c203: z({"sfc_1"})({6,5}) <= 1
 c204: y({"sfc_1"})(1)(4) + z({"sfc_1"})({6,5}) >= 1
 c205: z({"sfc_1"})({6,1}) <= 1
 c206: y({"sfc_1"})(1)(4) + z({"sfc_1"})({6,1}) >= 1
 c207: z({"sfc_1"})({1,2}) <= 1
 c208: y({"sfc_1"})(1)(5) + z({"sfc_1"})({1,2}) >= 1
 c209: z({"sfc_1"})({2,3}) <= 1
 c210: y({"sfc_1"})(1)(5) + z({"sfc_1"})({2,3}) >= 1
 c211: z({"sfc_1"})({2,6}) <= 1
 c212: y({"sfc_1"})(1)(5) + z({"sfc_1"})({2,6}) >= 1
 c213: z({"sfc_1"})({3,4}) <= 1
 c214: y({"sfc_1"})(1)(5) + z({"sfc_1"})({3,4}) >= 1
 c215: z({"sfc_1"})({3,5}) <= 1
 c216: y({"sfc_1"})(1)(5) + z({"sfc_1"})({3,5}) >= 1
 c217: z({"sfc_1"})({4,5}) <= 1
 c218: y({"sfc_1"})(1)(5) + z({"sfc_1"})({4,5}) >= 1
 c219: z({"sfc_1"})({5,6}) <= 1
 c220: y({"sfc_1"})(1)(5) + z({"sfc_1"})({5,6}) >= 1
 c221: z({"sfc_1"})({1,6}) <= 1
 c222: y({"sfc_1"})(1)(5) + z({"sfc_1"})({1,6}) >= 1
 c223: z({"sfc_1"})({2,1}) <= 1
 c224: y({"sfc_1"})(1)(5) + z({"sfc_1"})({2,1}) >= 1
 c225: z({"sfc_1"})({3,2}) <= 1
 c226: y({"sfc_1"})(1)(5) + z({"sfc_1"})({3,2}) >= 1
 c227: z({"sfc_1"})({6,2}) <= 1
 c228: y({"sfc_1"})(1)(5) + z({"sfc_1"})({6,2}) >= 1
 c229: z({"sfc_1"})({4,3}) <= 1
 c230: y({"sfc_1"})(1)(5) + z({"sfc_1"})({4,3}) >= 1
 c231: z({"sfc_1"})({5,3}) <= 1
 c232: y({"sfc_1"})(1)(5) + z({"sfc_1"})({5,3}) >= 1
 c233: z({"sfc_1"})({5,4}) <= 1
 c234: y({"sfc_1"})(1)(5) + z({"sfc_1"})({5,4}) >= 1
 c235: z({"sfc_1"})({6,5}) <= 1
 c236: y({"sfc_1"})(1)(5) + z({"sfc_1"})({6,5}) >= 1
 c237: z({"sfc_1"})({6,1}) <= 1
 c238: y({"sfc_1"})(1)(5) + z({"sfc_1"})({6,1}) >= 1
 c239: z({"sfc_1"})({1,2}) <= 1
 c240: y({"sfc_1"})(1)(6) + z({"sfc_1"})({1,2}) >= 1
 c241: z({"sfc_1"})({2,3}) <= 1
 c242: y({"sfc_1"})(1)(6) + z({"sfc_1"})({2,3}) >= 1
 c243: z({"sfc_1"})({2,6}) <= 1
 c244: y({"sfc_1"})(1)(6) + z({"sfc_1"})({2,6}) >= 1
 c245: z({"sfc_1"})({3,4}) <= 1
 c246: y({"sfc_1"})(1)(6) + z({"sfc_1"})({3,4}) >= 1
 c247: z({"sfc_1"})({3,5}) <= 1
 c248: y({"sfc_1"})(1)(6) + z({"sfc_1"})({3,5}) >= 1
 c249: z({"sfc_1"})({4,5}) <= 1
 c250: y({"sfc_1"})(1)(6) + z({"sfc_1"})({4,5}) >= 1
 c251: z({"sfc_1"})({5,6}) <= 1
 c252: y({"sfc_1"})(1)(6) + z({"sfc_1"})({5,6}) >= 1
 c253: z({"sfc_1"})({1,6}) <= 1
 c254: y({"sfc_1"})(1)(6) + z({"sfc_1"})({1,6}) >= 1
 c255: z({"sfc_1"})({2,1}) <= 1
 c256: y({"sfc_1"})(1)(6) + z({"sfc_1"})({2,1}) >= 1
 c257: z({"sfc_1"})({3,2}) <= 1
 c258: y({"sfc_1"})(1)(6) + z({"sfc_1"})({3,2}) >= 1
 c259: z({"sfc_1"})({6,2}) <= 1
 c260: y({"sfc_1"})(1)(6) + z({"sfc_1"})({6,2}) >= 1
 c261: z({"sfc_1"})({4,3}) <= 1
 c262: y({"sfc_1"})(1)(6) + z({"sfc_1"})({4,3}) >= 1
 c263: z({"sfc_1"})({5,3}) <= 1
 c264: y({"sfc_1"})(1)(6) + z({"sfc_1"})({5,3}) >= 1
 c265: z({"sfc_1"})({5,4}) <= 1
 c266: y({"sfc_1"})(1)(6) + z({"sfc_1"})({5,4}) >= 1
 c267: z({"sfc_1"})({6,5}) <= 1
 c268: y({"sfc_1"})(1)(6) + z({"sfc_1"})({6,5}) >= 1
 c269: z({"sfc_1"})({6,1}) <= 1
 c270: y({"sfc_1"})(1)(6) + z({"sfc_1"})({6,1}) >= 1
 c271: y({"sfc_1"})(1)(1) <= 1
 c272: y({"sfc_1"})(1)(1) + z({"sfc_1"})({1,2}) >= 1
 c273: y({"sfc_1"})(1)(1) <= 1
 c274: y({"sfc_1"})(1)(1) + z({"sfc_1"})({2,3}) >= 1
 c275: y({"sfc_1"})(1)(1) <= 1
 c276: y({"sfc_1"})(1)(1) + z({"sfc_1"})({2,6}) >= 1
 c277: y({"sfc_1"})(1)(1) <= 1
 c278: y({"sfc_1"})(1)(1) + z({"sfc_1"})({3,4}) >= 1
 c279: y({"sfc_1"})(1)(1) <= 1
 c280: y({"sfc_1"})(1)(1) + z({"sfc_1"})({3,5}) >= 1
 c281: y({"sfc_1"})(1)(1) <= 1
 c282: y({"sfc_1"})(1)(1) + z({"sfc_1"})({4,5}) >= 1
 c283: y({"sfc_1"})(1)(1) <= 1
 c284: y({"sfc_1"})(1)(1) + z({"sfc_1"})({5,6}) >= 1
 c285: y({"sfc_1"})(1)(1) <= 1
 c286: y({"sfc_1"})(1)(1) + z({"sfc_1"})({1,6}) >= 1
 c287: y({"sfc_1"})(1)(1) <= 1
 c288: y({"sfc_1"})(1)(1) + z({"sfc_1"})({2,1}) >= 1
 c289: y({"sfc_1"})(1)(1) <= 1
 c290: y({"sfc_1"})(1)(1) + z({"sfc_1"})({3,2}) >= 1
 c291: y({"sfc_1"})(1)(1) <= 1
 c292: y({"sfc_1"})(1)(1) + z({"sfc_1"})({6,2}) >= 1
 c293: y({"sfc_1"})(1)(1) <= 1
 c294: y({"sfc_1"})(1)(1) + z({"sfc_1"})({4,3}) >= 1
 c295: y({"sfc_1"})(1)(1) <= 1
 c296: y({"sfc_1"})(1)(1) + z({"sfc_1"})({5,3}) >= 1
 c297: y({"sfc_1"})(1)(1) <= 1
 c298: y({"sfc_1"})(1)(1) + z({"sfc_1"})({5,4}) >= 1
 c299: y({"sfc_1"})(1)(1) <= 1
 c300: y({"sfc_1"})(1)(1) + z({"sfc_1"})({6,5}) >= 1
 c301: y({"sfc_1"})(1)(1) <= 1
 c302: y({"sfc_1"})(1)(1) + z({"sfc_1"})({6,1}) >= 1
 c303: y({"sfc_1"})(1)(2) <= 1
 c304: y({"sfc_1"})(1)(2) + z({"sfc_1"})({1,2}) >= 1
 c305: y({"sfc_1"})(1)(2) <= 1
 c306: y({"sfc_1"})(1)(2) + z({"sfc_1"})({2,3}) >= 1
 c307: y({"sfc_1"})(1)(2) <= 1
 c308: y({"sfc_1"})(1)(2) + z({"sfc_1"})({2,6}) >= 1
 c309: y({"sfc_1"})(1)(2) <= 1
 c310: y({"sfc_1"})(1)(2) + z({"sfc_1"})({3,4}) >= 1
 c311: y({"sfc_1"})(1)(2) <= 1
 c312: y({"sfc_1"})(1)(2) + z({"sfc_1"})({3,5}) >= 1
 c313: y({"sfc_1"})(1)(2) <= 1
 c314: y({"sfc_1"})(1)(2) + z({"sfc_1"})({4,5}) >= 1
 c315: y({"sfc_1"})(1)(2) <= 1
 c316: y({"sfc_1"})(1)(2) + z({"sfc_1"})({5,6}) >= 1
 c317: y({"sfc_1"})(1)(2) <= 1
 c318: y({"sfc_1"})(1)(2) + z({"sfc_1"})({1,6}) >= 1
 c319: y({"sfc_1"})(1)(2) <= 1
 c320: y({"sfc_1"})(1)(2) + z({"sfc_1"})({2,1}) >= 1
 c321: y({"sfc_1"})(1)(2) <= 1
 c322: y({"sfc_1"})(1)(2) + z({"sfc_1"})({3,2}) >= 1
 c323: y({"sfc_1"})(1)(2) <= 1
 c324: y({"sfc_1"})(1)(2) + z({"sfc_1"})({6,2}) >= 1
 c325: y({"sfc_1"})(1)(2) <= 1
 c326: y({"sfc_1"})(1)(2) + z({"sfc_1"})({4,3}) >= 1
 c327: y({"sfc_1"})(1)(2) <= 1
 c328: y({"sfc_1"})(1)(2) + z({"sfc_1"})({5,3}) >= 1
 c329: y({"sfc_1"})(1)(2) <= 1
 c330: y({"sfc_1"})(1)(2) + z({"sfc_1"})({5,4}) >= 1
 c331: y({"sfc_1"})(1)(2) <= 1
 c332: y({"sfc_1"})(1)(2) + z({"sfc_1"})({6,5}) >= 1
 c333: y({"sfc_1"})(1)(2) <= 1
 c334: y({"sfc_1"})(1)(2) + z({"sfc_1"})({6,1}) >= 1
 c335: y({"sfc_1"})(1)(3) <= 1
 c336: y({"sfc_1"})(1)(3) + z({"sfc_1"})({1,2}) >= 1
 c337: y({"sfc_1"})(1)(3) <= 1
 c338: y({"sfc_1"})(1)(3) + z({"sfc_1"})({2,3}) >= 1
 c339: y({"sfc_1"})(1)(3) <= 1
 c340: y({"sfc_1"})(1)(3) + z({"sfc_1"})({2,6}) >= 1
 c341: y({"sfc_1"})(1)(3) <= 1
 c342: y({"sfc_1"})(1)(3) + z({"sfc_1"})({3,4}) >= 1
 c343: y({"sfc_1"})(1)(3) <= 1
 c344: y({"sfc_1"})(1)(3) + z({"sfc_1"})({3,5}) >= 1
 c345: y({"sfc_1"})(1)(3) <= 1
 c346: y({"sfc_1"})(1)(3) + z({"sfc_1"})({4,5}) >= 1
 c347: y({"sfc_1"})(1)(3) <= 1
 c348: y({"sfc_1"})(1)(3) + z({"sfc_1"})({5,6}) >= 1
 c349: y({"sfc_1"})(1)(3) <= 1
 c350: y({"sfc_1"})(1)(3) + z({"sfc_1"})({1,6}) >= 1
 c351: y({"sfc_1"})(1)(3) <= 1
 c352: y({"sfc_1"})(1)(3) + z({"sfc_1"})({2,1}) >= 1
 c353: y({"sfc_1"})(1)(3) <= 1
 c354: y({"sfc_1"})(1)(3) + z({"sfc_1"})({3,2}) >= 1
 c355: y({"sfc_1"})(1)(3) <= 1
 c356: y({"sfc_1"})(1)(3) + z({"sfc_1"})({6,2}) >= 1
 c357: y({"sfc_1"})(1)(3) <= 1
 c358: y({"sfc_1"})(1)(3) + z({"sfc_1"})({4,3}) >= 1
 c359: y({"sfc_1"})(1)(3) <= 1
 c360: y({"sfc_1"})(1)(3) + z({"sfc_1"})({5,3}) >= 1
 c361: y({"sfc_1"})(1)(3) <= 1
 c362: y({"sfc_1"})(1)(3) + z({"sfc_1"})({5,4}) >= 1
 c363: y({"sfc_1"})(1)(3) <= 1
 c364: y({"sfc_1"})(1)(3) + z({"sfc_1"})({6,5}) >= 1
 c365: y({"sfc_1"})(1)(3) <= 1
 c366: y({"sfc_1"})(1)(3) + z({"sfc_1"})({6,1}) >= 1
 c367: y({"sfc_1"})(1)(4) <= 1
 c368: y({"sfc_1"})(1)(4) + z({"sfc_1"})({1,2}) >= 1
 c369: y({"sfc_1"})(1)(4) <= 1
 c370: y({"sfc_1"})(1)(4) + z({"sfc_1"})({2,3}) >= 1
 c371: y({"sfc_1"})(1)(4) <= 1
 c372: y({"sfc_1"})(1)(4) + z({"sfc_1"})({2,6}) >= 1
 c373: y({"sfc_1"})(1)(4) <= 1
 c374: y({"sfc_1"})(1)(4) + z({"sfc_1"})({3,4}) >= 1
 c375: y({"sfc_1"})(1)(4) <= 1
 c376: y({"sfc_1"})(1)(4) + z({"sfc_1"})({3,5}) >= 1
 c377: y({"sfc_1"})(1)(4) <= 1
 c378: y({"sfc_1"})(1)(4) + z({"sfc_1"})({4,5}) >= 1
 c379: y({"sfc_1"})(1)(4) <= 1
 c380: y({"sfc_1"})(1)(4) + z({"sfc_1"})({5,6}) >= 1
 c381: y({"sfc_1"})(1)(4) <= 1
 c382: y({"sfc_1"})(1)(4) + z({"sfc_1"})({1,6}) >= 1
 c383: y({"sfc_1"})(1)(4) <= 1
 c384: y({"sfc_1"})(1)(4) + z({"sfc_1"})({2,1}) >= 1
 c385: y({"sfc_1"})(1)(4) <= 1
 c386: y({"sfc_1"})(1)(4) + z({"sfc_1"})({3,2}) >= 1
 c387: y({"sfc_1"})(1)(4) <= 1
 c388: y({"sfc_1"})(1)(4) + z({"sfc_1"})({6,2}) >= 1
 c389: y({"sfc_1"})(1)(4) <= 1
 c390: y({"sfc_1"})(1)(4) + z({"sfc_1"})({4,3}) >= 1
 c391: y({"sfc_1"})(1)(4) <= 1
 c392: y({"sfc_1"})(1)(4) + z({"sfc_1"})({5,3}) >= 1
 c393: y({"sfc_1"})(1)(4) <= 1
 c394: y({"sfc_1"})(1)(4) + z({"sfc_1"})({5,4}) >= 1
 c395: y({"sfc_1"})(1)(4) <= 1
 c396: y({"sfc_1"})(1)(4) + z({"sfc_1"})({6,5}) >= 1
 c397: y({"sfc_1"})(1)(4) <= 1
 c398: y({"sfc_1"})(1)(4) + z({"sfc_1"})({6,1}) >= 1
 c399: y({"sfc_1"})(1)(5) <= 1
 c400: y({"sfc_1"})(1)(5) + z({"sfc_1"})({1,2}) >= 1
 c401: y({"sfc_1"})(1)(5) <= 1
 c402: y({"sfc_1"})(1)(5) + z({"sfc_1"})({2,3}) >= 1
 c403: y({"sfc_1"})(1)(5) <= 1
 c404: y({"sfc_1"})(1)(5) + z({"sfc_1"})({2,6}) >= 1
 c405: y({"sfc_1"})(1)(5) <= 1
 c406: y({"sfc_1"})(1)(5) + z({"sfc_1"})({3,4}) >= 1
 c407: y({"sfc_1"})(1)(5) <= 1
 c408: y({"sfc_1"})(1)(5) + z({"sfc_1"})({3,5}) >= 1
 c409: y({"sfc_1"})(1)(5) <= 1
 c410: y({"sfc_1"})(1)(5) + z({"sfc_1"})({4,5}) >= 1
 c411: y({"sfc_1"})(1)(5) <= 1
 c412: y({"sfc_1"})(1)(5) + z({"sfc_1"})({5,6}) >= 1
 c413: y({"sfc_1"})(1)(5) <= 1
 c414: y({"sfc_1"})(1)(5) + z({"sfc_1"})({1,6}) >= 1
 c415: y({"sfc_1"})(1)(5) <= 1
 c416: y({"sfc_1"})(1)(5) + z({"sfc_1"})({2,1}) >= 1
 c417: y({"sfc_1"})(1)(5) <= 1
 c418: y({"sfc_1"})(1)(5) + z({"sfc_1"})({3,2}) >= 1
 c419: y({"sfc_1"})(1)(5) <= 1
 c420: y({"sfc_1"})(1)(5) + z({"sfc_1"})({6,2}) >= 1
 c421: y({"sfc_1"})(1)(5) <= 1
 c422: y({"sfc_1"})(1)(5) + z({"sfc_1"})({4,3}) >= 1
 c423: y({"sfc_1"})(1)(5) <= 1
 c424: y({"sfc_1"})(1)(5) + z({"sfc_1"})({5,3}) >= 1
 c425: y({"sfc_1"})(1)(5) <= 1
 c426: y({"sfc_1"})(1)(5) + z({"sfc_1"})({5,4}) >= 1
 c427: y({"sfc_1"})(1)(5) <= 1
 c428: y({"sfc_1"})(1)(5) + z({"sfc_1"})({6,5}) >= 1
 c429: y({"sfc_1"})(1)(5) <= 1
 c430: y({"sfc_1"})(1)(5) + z({"sfc_1"})({6,1}) >= 1
 c431: y({"sfc_1"})(1)(6) <= 1
 c432: y({"sfc_1"})(1)(6) + z({"sfc_1"})({1,2}) >= 1
 c433: y({"sfc_1"})(1)(6) <= 1
 c434: y({"sfc_1"})(1)(6) + z({"sfc_1"})({2,3}) >= 1
 c435: y({"sfc_1"})(1)(6) <= 1
 c436: y({"sfc_1"})(1)(6) + z({"sfc_1"})({2,6}) >= 1
 c437: y({"sfc_1"})(1)(6) <= 1
 c438: y({"sfc_1"})(1)(6) + z({"sfc_1"})({3,4}) >= 1
 c439: y({"sfc_1"})(1)(6) <= 1
 c440: y({"sfc_1"})(1)(6) + z({"sfc_1"})({3,5}) >= 1
 c441: y({"sfc_1"})(1)(6) <= 1
 c442: y({"sfc_1"})(1)(6) + z({"sfc_1"})({4,5}) >= 1
 c443: y({"sfc_1"})(1)(6) <= 1
 c444: y({"sfc_1"})(1)(6) + z({"sfc_1"})({5,6}) >= 1
 c445: y({"sfc_1"})(1)(6) <= 1
 c446: y({"sfc_1"})(1)(6) + z({"sfc_1"})({1,6}) >= 1
 c447: y({"sfc_1"})(1)(6) <= 1
 c448: y({"sfc_1"})(1)(6) + z({"sfc_1"})({2,1}) >= 1
 c449: y({"sfc_1"})(1)(6) <= 1
 c450: y({"sfc_1"})(1)(6) + z({"sfc_1"})({3,2}) >= 1
 c451: y({"sfc_1"})(1)(6) <= 1
 c452: y({"sfc_1"})(1)(6) + z({"sfc_1"})({6,2}) >= 1
 c453: y({"sfc_1"})(1)(6) <= 1
 c454: y({"sfc_1"})(1)(6) + z({"sfc_1"})({4,3}) >= 1
 c455: y({"sfc_1"})(1)(6) <= 1
 c456: y({"sfc_1"})(1)(6) + z({"sfc_1"})({5,3}) >= 1
 c457: y({"sfc_1"})(1)(6) <= 1
 c458: y({"sfc_1"})(1)(6) + z({"sfc_1"})({5,4}) >= 1
 c459: y({"sfc_1"})(1)(6) <= 1
 c460: y({"sfc_1"})(1)(6) + z({"sfc_1"})({6,5}) >= 1
 c461: y({"sfc_1"})(1)(6) <= 1
 c462: y({"sfc_1"})(1)(6) + z({"sfc_1"})({6,1}) >= 1
Bounds
 0 <= y({"sfc_1"})(1)(1) <= 1
 0 <= y({"sfc_1"})(2)(1) <= 1
 0 <= y({"sfc_1"})(3)(1) <= 1
 0 <= y({"sfc_1"})(1)(2) <= 1
 0 <= y({"sfc_1"})(2)(2) <= 1
 0 <= y({"sfc_1"})(3)(2) <= 1
 0 <= y({"sfc_1"})(1)(3) <= 1
 0 <= y({"sfc_1"})(2)(3) <= 1
 0 <= y({"sfc_1"})(3)(3) <= 1
 0 <= y({"sfc_1"})(1)(4) <= 1
 0 <= y({"sfc_1"})(2)(4) <= 1
 0 <= y({"sfc_1"})(3)(4) <= 1
 0 <= y({"sfc_1"})(1)(5) <= 1
 0 <= y({"sfc_1"})(2)(5) <= 1
 0 <= y({"sfc_1"})(3)(5) <= 1
 0 <= y({"sfc_1"})(1)(6) <= 1
 0 <= y({"sfc_1"})(2)(6) <= 1
 0 <= y({"sfc_1"})(3)(6) <= 1
 0 <= x("VNF1")(1) <= 1
 0 <= x("VNF1")(2) <= 1
 0 <= x("VNF1")(3) <= 1
 0 <= x("VNF1")(4) <= 1
 0 <= x("VNF1")(5) <= 1
 0 <= x("VNF1")(6) <= 1
 0 <= x("VNF2")(1) <= 1
 0 <= x("VNF2")(2) <= 1
 0 <= x("VNF2")(3) <= 1
 0 <= x("VNF2")(4) <= 1
 0 <= x("VNF2")(5) <= 1
 0 <= x("VNF2")(6) <= 1
 0 <= z({"sfc_1"})({1,2}) <= 1
 0 <= z({"sfc_1"})({2,3}) <= 1
 0 <= z({"sfc_1"})({2,6}) <= 1
 0 <= z({"sfc_1"})({3,4}) <= 1
 0 <= z({"sfc_1"})({3,5}) <= 1
 0 <= z({"sfc_1"})({4,5}) <= 1
 0 <= z({"sfc_1"})({5,6}) <= 1
 0 <= z({"sfc_1"})({1,6}) <= 1
 0 <= z({"sfc_1"})({2,1}) <= 1
 0 <= z({"sfc_1"})({3,2}) <= 1
 0 <= z({"sfc_1"})({6,2}) <= 1
 0 <= z({"sfc_1"})({4,3}) <= 1
 0 <= z({"sfc_1"})({5,3}) <= 1
 0 <= z({"sfc_1"})({5,4}) <= 1
 0 <= z({"sfc_1"})({6,5}) <= 1
 0 <= z({"sfc_1"})({6,1}) <= 1
Binaries
 y({"sfc_1"})(1)(1)  y({"sfc_1"})(2)(1)  y({"sfc_1"})(3)(1) 
 y({"sfc_1"})(1)(2)  y({"sfc_1"})(2)(2)  y({"sfc_1"})(3)(2) 
 y({"sfc_1"})(1)(3)  y({"sfc_1"})(2)(3)  y({"sfc_1"})(3)(3) 
 y({"sfc_1"})(1)(4)  y({"sfc_1"})(2)(4)  y({"sfc_1"})(3)(4) 
 y({"sfc_1"})(1)(5)  y({"sfc_1"})(2)(5)  y({"sfc_1"})(3)(5) 
 y({"sfc_1"})(1)(6)  y({"sfc_1"})(2)(6)  y({"sfc_1"})(3)(6)  x("VNF1")(1) 
 x("VNF1")(2)  x("VNF1")(3)  x("VNF1")(4)  x("VNF1")(5)  x("VNF1")(6) 
 x("VNF2")(1)  x("VNF2")(2)  x("VNF2")(3)  x("VNF2")(4)  x("VNF2")(5) 
 x("VNF2")(6)  z({"sfc_1"})({1,2})  z({"sfc_1"})({2,3})  z({"sfc_1"})({2,6}) 
 z({"sfc_1"})({3,4})  z({"sfc_1"})({3,5})  z({"sfc_1"})({4,5}) 
 z({"sfc_1"})({5,6})  z({"sfc_1"})({1,6})  z({"sfc_1"})({2,1}) 
 z({"sfc_1"})({3,2})  z({"sfc_1"})({6,2})  z({"sfc_1"})({4,3}) 
 z({"sfc_1"})({5,3})  z({"sfc_1"})({5,4})  z({"sfc_1"})({6,5}) 
 z({"sfc_1"})({6,1}) 
End
